output_file = "9-1-C-100-2.00-137.csv";

n_days = 100;
n_shelf_types = 2;
n_crops = 1;

num_shelves = [
    6, 3
];


crop_shelf_type_compatible = [
    [1, 1]
];

crop_growth_days = [15];

n_configurations = 2;

crop_growth_day_config = [
    [1, 1, 1, 2, 2, 2, 2, 2, 2, 2, 2, 2, 2, 2, 2]
];

capacity = [
    [12, 12],
[12, 12]
];

demand = [
    [0, 0, 0, 0, 0, 0, 0, 0, 0, 0, 0, 0, 0, 0, 0, 28, 36, 56, 0, 38, 14, 18, 0, 28, 70, 0, 0, 0, 0, 32, 36, 0, 0, 0, 14, 22, 40, 0, 0, 0, 0, 12, 36, 24, 0, 0, 0, 0, 14, 26, 0, 34, 0, 40, 0, 10, 36, 0, 42, 0, 0, 38, 0, 0, 36, 44, 0, 54, 0, 24, 0, 36, 0, 38, 0, 0, 12, 0, 0, 0, 38, 46, 0, 0, 0, 40, 24, 62, 0, 48, 0, 0, 0, 28, 62, 0, 0, 0, 38, 0]
];


missed_demand_penalty = [
    [0, 0, 0, 0, 0, 0, 0, 0, 0, 0, 0, 0, 0, 0, 0, 1, 1, 1, 0, 1, 1, 1, 0, 1, 1, 0, 0, 0, 0, 1, 1, 0, 0, 0, 1, 1, 1, 0, 0, 0, 0, 1, 1, 1, 0, 0, 0, 0, 1, 1, 0, 1, 0, 1, 0, 1, 1, 0, 1, 0, 0, 1, 0, 0, 1, 1, 0, 1, 0, 1, 0, 1, 0, 1, 0, 0, 1, 0, 0, 0, 1, 1, 0, 0, 0, 1, 1, 1, 0, 1, 0, 0, 0, 1, 1, 0, 0, 0, 1, 0]
];